c "random instance"
p edges 150 2222
e 1 3
e 1 4
e 1 10
e 1 16
e 1 22
e 1 23
e 1 28
e 1 29
e 1 35
e 1 38
e 1 42
e 1 44
e 1 48
e 1 49
e 1 51
e 1 59
e 1 60
e 1 76
e 1 77
e 1 89
e 1 91
e 1 95
e 1 98
e 1 108
e 1 112
e 1 113
e 1 120
e 1 122
e 1 124
e 1 126
e 1 137
e 1 142
e 2 16
e 2 17
e 2 20
e 2 28
e 2 34
e 2 46
e 2 52
e 2 68
e 2 76
e 2 78
e 2 81
e 2 91
e 2 92
e 2 93
e 2 94
e 2 102
e 2 106
e 2 119
e 2 120
e 2 124
e 2 126
e 2 132
e 2 144
e 2 147
e 2 149
e 2 150
e 3 5
e 3 10
e 3 16
e 3 20
e 3 23
e 3 29
e 3 32
e 3 33
e 3 53
e 3 57
e 3 68
e 3 70
e 3 73
e 3 74
e 3 80
e 3 91
e 3 95
e 3 100
e 3 108
e 3 112
e 3 115
e 3 132
e 3 135
e 3 142
e 3 143
e 3 145
e 3 150
e 4 9
e 4 15
e 4 17
e 4 22
e 4 24
e 4 44
e 4 45
e 4 50
e 4 53
e 4 57
e 4 62
e 4 64
e 4 67
e 4 79
e 4 82
e 4 84
e 4 103
e 4 104
e 4 106
e 4 107
e 4 113
e 4 128
e 4 144
e 4 146
e 4 147
e 5 7
e 5 8
e 5 16
e 5 22
e 5 47
e 5 60
e 5 69
e 5 74
e 5 81
e 5 97
e 5 101
e 5 104
e 5 105
e 5 110
e 5 115
e 5 119
e 5 122
e 5 127
e 5 131
e 5 134
e 5 140
e 5 141
e 5 143
e 5 149
e 6 8
e 6 9
e 6 10
e 6 18
e 6 21
e 6 26
e 6 27
e 6 29
e 6 30
e 6 33
e 6 40
e 6 41
e 6 45
e 6 55
e 6 58
e 6 59
e 6 60
e 6 61
e 6 65
e 6 68
e 6 70
e 6 71
e 6 74
e 6 76
e 6 77
e 6 84
e 6 86
e 6 100
e 6 103
e 6 106
e 6 108
e 6 110
e 6 120
e 6 121
e 6 125
e 6 128
e 6 140
e 6 141
e 6 150
e 7 19
e 7 30
e 7 39
e 7 42
e 7 43
e 7 44
e 7 49
e 7 57
e 7 73
e 7 74
e 7 78
e 7 81
e 7 84
e 7 93
e 7 94
e 7 98
e 7 101
e 7 102
e 7 103
e 7 104
e 7 110
e 7 112
e 7 118
e 7 132
e 7 134
e 7 139
e 7 149
e 8 10
e 8 14
e 8 27
e 8 29
e 8 32
e 8 33
e 8 45
e 8 47
e 8 59
e 8 62
e 8 76
e 8 79
e 8 84
e 8 86
e 8 96
e 8 97
e 8 101
e 8 112
e 8 124
e 8 137
e 8 144
e 8 147
e 8 150
e 9 23
e 9 25
e 9 42
e 9 45
e 9 46
e 9 47
e 9 49
e 9 51
e 9 52
e 9 58
e 9 59
e 9 61
e 9 64
e 9 67
e 9 71
e 9 73
e 9 75
e 9 77
e 9 91
e 9 107
e 9 113
e 9 128
e 9 142
e 9 149
e 9 150
e 10 13
e 10 16
e 10 30
e 10 35
e 10 38
e 10 46
e 10 48
e 10 50
e 10 51
e 10 52
e 10 56
e 10 57
e 10 61
e 10 64
e 10 70
e 10 71
e 10 73
e 10 74
e 10 77
e 10 79
e 10 80
e 10 81
e 10 83
e 10 85
e 10 92
e 10 97
e 10 99
e 10 100
e 10 102
e 10 108
e 10 114
e 10 122
e 10 139
e 10 142
e 10 144
e 10 150
e 11 12
e 11 13
e 11 16
e 11 24
e 11 32
e 11 36
e 11 48
e 11 53
e 11 54
e 11 57
e 11 58
e 11 62
e 11 66
e 11 68
e 11 72
e 11 75
e 11 76
e 11 91
e 11 95
e 11 101
e 11 107
e 11 111
e 11 115
e 11 124
e 11 126
e 11 128
e 11 129
e 12 15
e 12 18
e 12 19
e 12 30
e 12 33
e 12 38
e 12 43
e 12 45
e 12 46
e 12 48
e 12 50
e 12 54
e 12 57
e 12 60
e 12 61
e 12 62
e 12 66
e 12 78
e 12 88
e 12 90
e 12 96
e 12 101
e 12 103
e 12 107
e 12 110
e 12 116
e 12 117
e 12 124
e 12 146
e 12 150
e 13 17
e 13 19
e 13 20
e 13 28
e 13 31
e 13 39
e 13 40
e 13 47
e 13 51
e 13 58
e 13 62
e 13 64
e 13 70
e 13 75
e 13 77
e 13 78
e 13 79
e 13 80
e 13 81
e 13 86
e 13 88
e 13 90
e 13 94
e 13 96
e 13 106
e 13 112
e 13 114
e 13 130
e 13 136
e 13 139
e 13 141
e 13 147
e 13 148
e 13 150
e 14 18
e 14 24
e 14 25
e 14 32
e 14 47
e 14 53
e 14 55
e 14 62
e 14 66
e 14 69
e 14 70
e 14 73
e 14 74
e 14 75
e 14 77
e 14 88
e 14 92
e 14 103
e 14 112
e 14 113
e 14 115
e 14 119
e 14 120
e 14 122
e 14 124
e 14 130
e 14 132
e 14 149
e 15 22
e 15 26
e 15 27
e 15 40
e 15 44
e 15 51
e 15 53
e 15 55
e 15 56
e 15 62
e 15 89
e 15 94
e 15 98
e 15 109
e 15 112
e 15 113
e 15 118
e 15 124
e 15 143
e 15 147
e 15 150
e 16 26
e 16 35
e 16 40
e 16 43
e 16 54
e 16 66
e 16 72
e 16 75
e 16 77
e 16 82
e 16 84
e 16 86
e 16 87
e 16 94
e 16 99
e 16 103
e 16 118
e 16 124
e 16 131
e 16 139
e 16 142
e 16 150
e 17 27
e 17 49
e 17 55
e 17 56
e 17 63
e 17 72
e 17 73
e 17 76
e 17 77
e 17 88
e 17 90
e 17 105
e 17 106
e 17 107
e 17 112
e 17 116
e 17 117
e 17 125
e 17 127
e 17 130
e 17 131
e 17 136
e 17 141
e 17 145
e 18 24
e 18 25
e 18 26
e 18 53
e 18 58
e 18 72
e 18 73
e 18 77
e 18 85
e 18 89
e 18 99
e 18 102
e 18 105
e 18 106
e 18 110
e 18 111
e 18 128
e 18 129
e 18 136
e 18 149
e 19 24
e 19 34
e 19 43
e 19 44
e 19 45
e 19 50
e 19 55
e 19 57
e 19 62
e 19 63
e 19 64
e 19 67
e 19 68
e 19 69
e 19 70
e 19 73
e 19 74
e 19 88
e 19 90
e 19 92
e 19 95
e 19 106
e 19 108
e 19 115
e 19 116
e 19 118
e 19 126
e 19 128
e 19 132
e 19 136
e 19 140
e 19 142
e 19 143
e 20 21
e 20 28
e 20 32
e 20 40
e 20 41
e 20 47
e 20 49
e 20 50
e 20 51
e 20 53
e 20 55
e 20 56
e 20 57
e 20 61
e 20 64
e 20 65
e 20 68
e 20 70
e 20 71
e 20 72
e 20 74
e 20 82
e 20 87
e 20 89
e 20 96
e 20 98
e 20 102
e 20 103
e 20 105
e 20 106
e 20 117
e 20 119
e 20 120
e 20 121
e 20 127
e 20 135
e 20 139
e 21 31
e 21 33
e 21 35
e 21 40
e 21 44
e 21 45
e 21 46
e 21 47
e 21 50
e 21 54
e 21 58
e 21 59
e 21 61
e 21 79
e 21 81
e 21 84
e 21 87
e 21 88
e 21 93
e 21 103
e 21 123
e 21 126
e 21 127
e 21 137
e 21 140
e 21 142
e 21 143
e 22 25
e 22 27
e 22 35
e 22 36
e 22 45
e 22 54
e 22 66
e 22 69
e 22 71
e 22 74
e 22 79
e 22 85
e 22 95
e 22 98
e 22 106
e 22 115
e 22 117
e 22 121
e 22 126
e 22 131
e 22 134
e 22 136
e 22 139
e 22 146
e 22 150
e 23 32
e 23 33
e 23 40
e 23 41
e 23 54
e 23 56
e 23 57
e 23 58
e 23 64
e 23 71
e 23 72
e 23 88
e 23 89
e 23 91
e 23 92
e 23 95
e 23 105
e 23 112
e 23 118
e 23 137
e 23 139
e 23 146
e 24 28
e 24 29
e 24 37
e 24 40
e 24 42
e 24 43
e 24 48
e 24 51
e 24 57
e 24 76
e 24 90
e 24 104
e 24 111
e 24 121
e 24 125
e 24 134
e 24 137
e 24 139
e 24 145
e 24 149
e 25 30
e 25 36
e 25 40
e 25 42
e 25 49
e 25 50
e 25 51
e 25 52
e 25 57
e 25 58
e 25 59
e 25 66
e 25 74
e 25 77
e 25 82
e 25 85
e 25 91
e 25 96
e 25 100
e 25 102
e 25 103
e 25 113
e 25 115
e 25 119
e 25 134
e 25 135
e 25 142
e 26 28
e 26 35
e 26 42
e 26 46
e 26 50
e 26 54
e 26 60
e 26 70
e 26 84
e 26 88
e 26 94
e 26 106
e 26 111
e 26 116
e 26 117
e 26 120
e 26 123
e 26 125
e 26 131
e 26 134
e 26 137
e 26 141
e 26 145
e 26 146
e 27 30
e 27 47
e 27 53
e 27 57
e 27 58
e 27 60
e 27 65
e 27 66
e 27 68
e 27 69
e 27 70
e 27 73
e 27 83
e 27 95
e 27 103
e 27 104
e 27 113
e 27 114
e 27 116
e 27 117
e 27 124
e 27 125
e 27 126
e 27 130
e 27 136
e 27 147
e 28 29
e 28 30
e 28 32
e 28 48
e 28 51
e 28 53
e 28 56
e 28 57
e 28 60
e 28 61
e 28 63
e 28 64
e 28 67
e 28 73
e 28 74
e 28 84
e 28 95
e 28 96
e 28 97
e 28 98
e 28 105
e 28 114
e 28 117
e 28 124
e 28 127
e 28 129
e 28 130
e 28 131
e 28 137
e 28 142
e 28 143
e 28 146
e 28 147
e 28 149
e 28 150
e 29 32
e 29 41
e 29 47
e 29 66
e 29 67
e 29 70
e 29 72
e 29 74
e 29 77
e 29 82
e 29 83
e 29 84
e 29 94
e 29 109
e 29 123
e 29 124
e 29 130
e 29 133
e 29 141
e 29 142
e 29 147
e 30 31
e 30 33
e 30 38
e 30 46
e 30 50
e 30 54
e 30 62
e 30 65
e 30 71
e 30 78
e 30 83
e 30 84
e 30 90
e 30 106
e 30 107
e 30 110
e 30 111
e 30 113
e 30 114
e 30 118
e 30 123
e 30 130
e 30 135
e 30 136
e 30 143
e 30 147
e 30 150
e 31 34
e 31 35
e 31 44
e 31 47
e 31 52
e 31 54
e 31 63
e 31 64
e 31 66
e 31 68
e 31 73
e 31 77
e 31 79
e 31 93
e 31 102
e 31 103
e 31 109
e 31 112
e 31 118
e 31 125
e 31 127
e 31 136
e 31 137
e 31 141
e 32 34
e 32 41
e 32 55
e 32 57
e 32 58
e 32 62
e 32 76
e 32 81
e 32 82
e 32 87
e 32 96
e 32 99
e 32 102
e 32 104
e 32 111
e 32 118
e 32 127
e 32 128
e 32 131
e 32 133
e 32 137
e 32 138
e 32 141
e 32 147
e 33 36
e 33 46
e 33 51
e 33 56
e 33 59
e 33 62
e 33 77
e 33 79
e 33 84
e 33 85
e 33 89
e 33 96
e 33 99
e 33 117
e 33 124
e 33 127
e 33 130
e 33 132
e 33 134
e 33 138
e 33 141
e 33 142
e 33 145
e 34 38
e 34 39
e 34 41
e 34 43
e 34 44
e 34 52
e 34 69
e 34 79
e 34 85
e 34 86
e 34 91
e 34 95
e 34 97
e 34 101
e 34 104
e 34 111
e 34 117
e 34 118
e 34 119
e 34 124
e 34 127
e 34 131
e 34 135
e 34 145
e 34 148
e 34 149
e 35 36
e 35 41
e 35 45
e 35 46
e 35 49
e 35 50
e 35 54
e 35 63
e 35 67
e 35 68
e 35 69
e 35 71
e 35 72
e 35 79
e 35 88
e 35 97
e 35 100
e 35 108
e 35 112
e 35 113
e 35 119
e 35 121
e 35 122
e 35 128
e 35 130
e 35 135
e 35 144
e 35 145
e 35 146
e 35 147
e 35 150
e 36 40
e 36 42
e 36 48
e 36 49
e 36 52
e 36 67
e 36 84
e 36 86
e 36 89
e 36 93
e 36 94
e 36 103
e 36 110
e 36 113
e 36 115
e 36 120
e 36 129
e 36 135
e 36 136
e 36 142
e 36 143
e 37 57
e 37 59
e 37 67
e 37 70
e 37 78
e 37 82
e 37 84
e 37 91
e 37 94
e 37 95
e 37 97
e 37 100
e 37 104
e 37 107
e 37 111
e 37 112
e 37 116
e 37 117
e 37 130
e 37 134
e 37 138
e 38 45
e 38 47
e 38 51
e 38 60
e 38 61
e 38 66
e 38 68
e 38 70
e 38 73
e 38 90
e 38 96
e 38 107
e 38 109
e 38 112
e 38 115
e 38 119
e 38 121
e 38 128
e 38 131
e 38 133
e 38 135
e 38 136
e 38 138
e 38 141
e 38 149
e 39 44
e 39 49
e 39 56
e 39 61
e 39 64
e 39 65
e 39 69
e 39 70
e 39 77
e 39 85
e 39 88
e 39 92
e 39 95
e 39 101
e 39 107
e 39 111
e 39 112
e 39 115
e 39 122
e 39 123
e 39 126
e 39 127
e 39 129
e 39 133
e 39 134
e 39 139
e 39 144
e 39 147
e 40 50
e 40 63
e 40 68
e 40 73
e 40 85
e 40 91
e 40 98
e 40 111
e 40 120
e 40 121
e 40 127
e 40 128
e 40 129
e 40 134
e 40 146
e 40 147
e 40 149
e 41 44
e 41 47
e 41 48
e 41 49
e 41 52
e 41 59
e 41 71
e 41 75
e 41 76
e 41 81
e 41 87
e 41 91
e 41 94
e 41 98
e 41 102
e 41 110
e 41 111
e 41 113
e 41 118
e 41 123
e 41 125
e 41 127
e 41 133
e 41 136
e 41 143
e 41 146
e 41 149
e 41 150
e 42 43
e 42 55
e 42 68
e 42 90
e 42 92
e 42 95
e 42 99
e 42 105
e 42 117
e 42 118
e 42 127
e 42 128
e 42 129
e 42 130
e 42 131
e 42 133
e 42 144
e 42 145
e 43 48
e 43 71
e 43 73
e 43 83
e 43 90
e 43 91
e 43 93
e 43 94
e 43 97
e 43 98
e 43 103
e 43 108
e 43 110
e 43 111
e 43 112
e 43 119
e 43 121
e 43 124
e 43 128
e 43 136
e 43 140
e 43 144
e 43 146
e 44 48
e 44 49
e 44 56
e 44 57
e 44 76
e 44 79
e 44 84
e 44 85
e 44 92
e 44 94
e 44 97
e 44 101
e 44 112
e 44 120
e 44 121
e 44 124
e 44 125
e 44 126
e 44 134
e 44 135
e 44 137
e 45 46
e 45 50
e 45 55
e 45 56
e 45 57
e 45 64
e 45 68
e 45 70
e 45 73
e 45 75
e 45 82
e 45 85
e 45 88
e 45 91
e 45 97
e 45 100
e 45 104
e 45 108
e 45 117
e 45 124
e 45 125
e 45 130
e 45 134
e 45 135
e 45 138
e 45 141
e 45 145
e 46 48
e 46 62
e 46 105
e 46 107
e 46 108
e 46 111
e 46 113
e 46 115
e 46 116
e 46 120
e 46 125
e 46 126
e 46 131
e 46 132
e 46 133
e 46 136
e 46 141
e 46 142
e 46 146
e 46 148
e 47 49
e 47 54
e 47 58
e 47 69
e 47 75
e 47 96
e 47 110
e 47 121
e 47 123
e 47 139
e 48 49
e 48 54
e 48 55
e 48 56
e 48 58
e 48 62
e 48 68
e 48 71
e 48 78
e 48 79
e 48 83
e 48 85
e 48 89
e 48 92
e 48 96
e 48 99
e 48 102
e 48 103
e 48 104
e 48 110
e 48 111
e 48 113
e 48 123
e 48 137
e 48 140
e 48 141
e 48 146
e 49 55
e 49 57
e 49 63
e 49 71
e 49 81
e 49 99
e 49 100
e 49 101
e 49 103
e 49 104
e 49 110
e 49 113
e 49 114
e 49 119
e 49 120
e 49 128
e 49 131
e 49 138
e 49 139
e 49 142
e 50 54
e 50 62
e 50 69
e 50 74
e 50 86
e 50 91
e 50 96
e 50 98
e 50 102
e 50 104
e 50 108
e 50 110
e 50 119
e 50 121
e 50 122
e 50 123
e 50 128
e 50 136
e 50 143
e 51 53
e 51 73
e 51 74
e 51 81
e 51 82
e 51 91
e 51 93
e 51 96
e 51 104
e 51 105
e 51 114
e 51 115
e 51 124
e 51 133
e 51 138
e 51 140
e 51 145
e 51 149
e 52 59
e 52 65
e 52 67
e 52 77
e 52 81
e 52 83
e 52 89
e 52 93
e 52 101
e 52 102
e 52 110
e 52 112
e 52 119
e 52 125
e 52 135
e 52 139
e 52 141
e 52 142
e 52 143
e 52 144
e 52 146
e 53 55
e 53 59
e 53 82
e 53 87
e 53 90
e 53 93
e 53 94
e 53 98
e 53 104
e 53 110
e 53 112
e 53 116
e 53 123
e 53 135
e 53 146
e 54 81
e 54 82
e 54 84
e 54 86
e 54 89
e 54 91
e 54 95
e 54 116
e 54 117
e 54 121
e 54 124
e 54 128
e 54 129
e 54 134
e 55 57
e 55 62
e 55 65
e 55 68
e 55 75
e 55 83
e 55 86
e 55 91
e 55 104
e 55 110
e 55 120
e 55 121
e 55 130
e 55 136
e 55 138
e 55 140
e 56 75
e 56 76
e 56 78
e 56 84
e 56 85
e 56 91
e 56 95
e 56 110
e 56 120
e 56 123
e 56 127
e 56 129
e 56 132
e 56 143
e 56 146
e 57 66
e 57 67
e 57 68
e 57 69
e 57 71
e 57 80
e 57 82
e 57 84
e 57 90
e 57 109
e 57 110
e 57 115
e 57 116
e 57 122
e 57 126
e 57 129
e 57 131
e 57 133
e 57 134
e 57 136
e 57 143
e 58 62
e 58 68
e 58 69
e 58 78
e 58 80
e 58 86
e 58 95
e 58 97
e 58 98
e 58 107
e 58 109
e 58 111
e 58 114
e 58 118
e 58 123
e 58 126
e 58 137
e 58 141
e 58 149
e 59 61
e 59 68
e 59 74
e 59 81
e 59 82
e 59 83
e 59 94
e 59 99
e 59 104
e 59 123
e 59 126
e 59 132
e 59 140
e 59 141
e 59 143
e 59 149
e 60 68
e 60 74
e 60 79
e 60 82
e 60 94
e 60 97
e 60 98
e 60 100
e 60 101
e 60 106
e 60 107
e 60 111
e 60 122
e 60 137
e 60 138
e 60 142
e 60 144
e 60 145
e 60 146
e 61 66
e 61 71
e 61 72
e 61 78
e 61 79
e 61 97
e 61 110
e 61 111
e 61 116
e 61 119
e 61 120
e 61 126
e 61 130
e 61 132
e 61 134
e 61 141
e 61 144
e 62 72
e 62 73
e 62 75
e 62 79
e 62 84
e 62 86
e 62 88
e 62 91
e 62 99
e 62 102
e 62 103
e 62 107
e 62 112
e 62 122
e 62 126
e 62 128
e 62 130
e 62 132
e 62 137
e 62 143
e 62 145
e 63 64
e 63 65
e 63 66
e 63 67
e 63 71
e 63 73
e 63 81
e 63 82
e 63 101
e 63 105
e 63 106
e 63 107
e 63 112
e 63 114
e 63 121
e 63 131
e 63 132
e 63 137
e 63 140
e 63 141
e 64 68
e 64 87
e 64 91
e 64 102
e 64 111
e 64 113
e 64 120
e 64 126
e 64 142
e 64 149
e 65 71
e 65 72
e 65 73
e 65 74
e 65 78
e 65 90
e 65 98
e 65 103
e 65 119
e 65 123
e 65 125
e 65 129
e 65 131
e 65 137
e 65 144
e 66 70
e 66 76
e 66 83
e 66 84
e 66 88
e 66 90
e 66 99
e 66 101
e 66 130
e 66 134
e 66 137
e 66 148
e 66 150
e 67 68
e 67 81
e 67 86
e 67 90
e 67 103
e 67 106
e 67 108
e 67 112
e 67 116
e 67 118
e 67 126
e 67 127
e 67 130
e 67 142
e 67 144
e 67 150
e 68 72
e 68 80
e 68 81
e 68 83
e 68 86
e 68 90
e 68 103
e 68 118
e 68 123
e 68 130
e 68 133
e 68 139
e 68 149
e 69 75
e 69 78
e 69 80
e 69 82
e 69 85
e 69 89
e 69 108
e 69 111
e 69 112
e 69 113
e 69 117
e 69 118
e 69 126
e 69 127
e 69 146
e 69 147
e 70 71
e 70 77
e 70 78
e 70 79
e 70 91
e 70 92
e 70 97
e 70 99
e 70 101
e 70 102
e 70 111
e 70 114
e 70 117
e 70 121
e 70 133
e 70 136
e 70 137
e 70 146
e 70 148
e 71 76
e 71 80
e 71 85
e 71 96
e 71 97
e 71 104
e 71 105
e 71 110
e 71 118
e 71 139
e 71 140
e 71 145
e 71 149
e 71 150
e 72 74
e 72 76
e 72 81
e 72 96
e 72 100
e 72 101
e 72 114
e 72 115
e 72 122
e 72 127
e 72 129
e 72 133
e 72 146
e 72 148
e 72 149
e 73 74
e 73 80
e 73 100
e 73 111
e 73 138
e 73 146
e 73 149
e 74 85
e 74 87
e 74 98
e 74 103
e 74 105
e 74 124
e 74 125
e 74 129
e 74 134
e 74 136
e 74 144
e 74 146
e 75 78
e 75 93
e 75 104
e 75 105
e 75 108
e 75 111
e 75 113
e 75 118
e 75 126
e 75 129
e 75 132
e 75 133
e 75 138
e 75 147
e 75 149
e 76 78
e 76 80
e 76 81
e 76 83
e 76 88
e 76 91
e 76 96
e 76 105
e 76 106
e 76 111
e 76 113
e 76 117
e 76 131
e 76 132
e 76 135
e 76 137
e 76 148
e 77 78
e 77 82
e 77 83
e 77 87
e 77 95
e 77 101
e 77 106
e 77 108
e 77 110
e 77 112
e 77 114
e 77 117
e 77 122
e 77 125
e 77 129
e 77 130
e 77 132
e 78 81
e 78 92
e 78 105
e 78 107
e 78 119
e 78 120
e 78 123
e 78 132
e 78 133
e 78 135
e 78 139
e 78 147
e 78 149
e 79 80
e 79 88
e 79 96
e 79 97
e 79 102
e 79 104
e 79 114
e 79 117
e 79 118
e 79 119
e 79 126
e 79 127
e 79 129
e 79 132
e 79 136
e 79 144
e 79 149
e 80 81
e 80 85
e 80 88
e 80 90
e 80 96
e 80 97
e 80 104
e 80 112
e 80 113
e 80 118
e 80 119
e 80 124
e 80 126
e 80 137
e 81 96
e 81 98
e 81 100
e 81 105
e 81 106
e 81 108
e 81 113
e 81 117
e 81 124
e 81 125
e 81 128
e 81 134
e 81 135
e 81 138
e 81 142
e 81 143
e 82 89
e 82 90
e 82 91
e 82 95
e 82 97
e 82 101
e 82 106
e 82 110
e 82 114
e 82 120
e 82 131
e 82 132
e 82 135
e 83 85
e 83 86
e 83 95
e 83 100
e 83 102
e 83 104
e 83 105
e 83 111
e 83 114
e 83 122
e 83 126
e 83 129
e 83 138
e 83 141
e 83 142
e 83 148
e 84 87
e 84 88
e 84 94
e 84 98
e 84 103
e 84 112
e 84 125
e 84 127
e 84 134
e 84 135
e 84 137
e 84 142
e 85 86
e 85 97
e 85 98
e 85 101
e 85 113
e 85 118
e 85 119
e 85 122
e 85 124
e 85 132
e 85 143
e 86 88
e 86 89
e 86 92
e 86 101
e 86 104
e 86 113
e 86 117
e 86 123
e 86 127
e 86 128
e 86 133
e 86 136
e 86 142
e 86 147
e 86 149
e 87 91
e 87 102
e 87 106
e 87 108
e 87 113
e 87 121
e 87 128
e 87 130
e 87 131
e 87 134
e 87 142
e 88 93
e 88 106
e 88 108
e 88 117
e 88 123
e 88 128
e 88 139
e 88 146
e 89 92
e 89 93
e 89 100
e 89 102
e 89 103
e 89 114
e 89 115
e 89 116
e 89 118
e 89 124
e 89 129
e 89 143
e 89 144
e 89 145
e 89 149
e 90 95
e 90 100
e 90 102
e 90 106
e 90 110
e 90 112
e 90 136
e 90 139
e 90 146
e 90 147
e 90 148
e 90 150
e 91 92
e 91 128
e 91 134
e 91 138
e 91 143
e 91 147
e 92 94
e 92 101
e 92 104
e 92 119
e 92 122
e 92 123
e 92 124
e 92 127
e 92 133
e 92 134
e 92 136
e 92 141
e 92 143
e 92 147
e 93 96
e 93 105
e 93 107
e 93 110
e 93 113
e 93 130
e 93 139
e 93 140
e 93 142
e 93 143
e 93 145
e 93 150
e 94 101
e 94 103
e 94 108
e 94 109
e 94 117
e 94 127
e 94 128
e 94 136
e 94 142
e 94 145
e 94 148
e 95 99
e 95 103
e 95 105
e 95 110
e 95 129
e 95 131
e 95 140
e 95 141
e 95 145
e 96 99
e 96 113
e 96 114
e 96 124
e 96 130
e 96 137
e 96 148
e 97 107
e 97 113
e 97 116
e 97 120
e 97 132
e 97 142
e 98 103
e 98 112
e 98 113
e 98 119
e 98 121
e 98 129
e 98 132
e 98 137
e 98 138
e 98 140
e 98 146
e 98 148
e 99 103
e 99 108
e 99 118
e 99 119
e 99 128
e 99 131
e 99 134
e 99 135
e 99 138
e 99 142
e 100 108
e 100 112
e 100 117
e 100 118
e 100 122
e 100 124
e 100 125
e 100 135
e 100 136
e 100 141
e 100 142
e 100 143
e 100 144
e 100 150
e 101 108
e 101 121
e 101 125
e 101 127
e 101 133
e 101 138
e 102 108
e 102 109
e 102 111
e 102 121
e 102 123
e 102 134
e 102 136
e 102 149
e 102 150
e 103 106
e 103 108
e 103 111
e 103 118
e 103 127
e 103 128
e 103 132
e 103 135
e 103 148
e 104 106
e 104 120
e 104 126
e 104 130
e 104 131
e 104 133
e 104 134
e 104 138
e 104 139
e 104 145
e 104 148
e 105 106
e 105 107
e 105 108
e 105 109
e 105 114
e 105 118
e 105 124
e 105 125
e 105 129
e 105 131
e 105 148
e 105 149
e 106 116
e 106 117
e 106 121
e 106 125
e 106 129
e 106 133
e 106 134
e 106 143
e 106 145
e 106 147
e 106 148
e 107 117
e 107 120
e 107 133
e 107 137
e 107 140
e 107 148
e 108 109
e 108 111
e 108 112
e 108 118
e 108 121
e 108 125
e 108 132
e 108 144
e 108 145
e 109 120
e 109 131
e 109 135
e 109 136
e 109 138
e 109 140
e 109 148
e 110 111
e 110 112
e 110 113
e 110 116
e 110 117
e 110 126
e 110 130
e 110 140
e 110 142
e 111 115
e 111 118
e 111 120
e 111 122
e 111 123
e 111 130
e 111 134
e 111 138
e 111 139
e 111 147
e 112 125
e 112 129
e 112 138
e 112 142
e 112 145
e 112 146
e 113 115
e 113 117
e 113 118
e 113 123
e 113 126
e 113 128
e 113 133
e 113 137
e 113 146
e 114 122
e 114 123
e 114 128
e 114 137
e 114 138
e 114 145
e 114 147
e 114 149
e 115 119
e 115 121
e 115 122
e 115 123
e 115 128
e 115 140
e 115 150
e 116 117
e 116 120
e 116 127
e 116 129
e 116 130
e 116 132
e 116 137
e 116 141
e 116 146
e 116 148
e 116 150
e 117 139
e 117 140
e 117 143
e 117 145
e 118 120
e 118 125
e 118 131
e 118 132
e 118 133
e 118 141
e 119 123
e 119 124
e 119 133
e 119 138
e 119 139
e 119 145
e 119 147
e 119 150
e 120 121
e 120 124
e 120 143
e 120 145
e 120 147
e 120 148
e 120 150
e 121 123
e 121 124
e 121 128
e 121 130
e 121 132
e 121 133
e 121 134
e 121 136
e 121 140
e 121 144
e 121 146
e 122 124
e 122 126
e 122 133
e 122 136
e 122 139
e 122 143
e 123 131
e 123 133
e 124 136
e 124 138
e 124 139
e 124 146
e 125 126
e 125 139
e 125 141
e 125 144
e 126 131
e 126 132
e 126 133
e 126 134
e 126 138
e 126 139
e 126 140
e 126 145
e 126 147
e 126 150
e 127 128
e 127 130
e 127 136
e 127 139
e 127 141
e 127 142
e 127 146
e 127 147
e 128 129
e 128 131
e 128 138
e 128 144
e 129 130
e 129 132
e 129 133
e 129 134
e 129 141
e 130 140
e 130 143
e 131 135
e 131 143
e 132 134
e 132 141
e 132 148
e 132 149
e 133 136
e 133 141
e 133 142
e 133 150
e 134 143
e 135 140
e 135 141
e 135 148
e 136 145
e 137 139
e 137 148
e 137 149
e 139 144
e 139 147
e 140 143
e 140 147
e 141 148
e 141 150
e 143 150
e 144 149
e 147 148
e 148 150
e 149 150
